jpf-symbc-bounded/src/examples/symbolicheap/bounded/bounddb/FibHeap-01.cnf
p cnf 77 84                 
-2 -1 -15 0
15 -17 0
1 2 -16 0
16 -17 0
-4 -3 -18 0
18 -20 0
3 4 -19 0
19 -20 0
-8 -9 21 0
-21 -26 0
8 9 -22 0
22 -25 0
10 -24 0
11 12 -23 0
23 -24 0
24 -25 0
25 -26 0
26 -29 0
-11 -12 27 0
-27 -28 0
5 -28 0
28 -29 0
-3 14 -38 0
38 -40 0
-4 14 -39 0
39 -40 0
-1 14 -41 0
41 -43 0
-2 14 -42 0
42 -43 0
2 -31 0
14 -31 0
-2 -14 31 0
7 -54 0
-31 10 -49 0
49 -53 0
-9 -11 50 0
-50 -52 0
8 -51 0
11 -51 0
51 -52 0
52 -53 0
53 -54 0
54 -57 0
11 -12 55 0
-55 -56 0
5 -56 0
56 -57 0
-31 57 -58 0
58 -68 0
3 -59 0
14 -59 0
-3 -14 59 0
-59 -31 -61 0
61 -63 0
4 -60 0
14 -60 0
-4 -14 60 0
-60 31 -62 0
62 -63 0
63 -67 0
31 59 -64 0
64 -66 0
-31 60 -65 0
65 -66 0
66 -67 0
67 -68 0
13 -69 0
14 -69 0
-13 -14 69 0
-69 31 -74 0
74 -76 0
-31 69 -75 0
75 -76 0
6 0
7 0
14 0
17 0
20 0
29 0
40 0
43 0
68 0
76 0
